objective value:                                  295
t_x296                                              1 	(obj:1)
t_x1                                                1 	(obj:1)
t_x2                                                1 	(obj:1)
t_x3                                                1 	(obj:1)
t_x4                                                1 	(obj:1)
t_x5                                                1 	(obj:1)
t_x6                                                1 	(obj:1)
t_x7                                                1 	(obj:1)
t_x8                                                1 	(obj:1)
t_x9                                                1 	(obj:1)
t_x10                                               1 	(obj:1)
t_x11                                               1 	(obj:1)
t_x12                                               1 	(obj:1)
t_x13                                               1 	(obj:1)
t_x14                                               1 	(obj:1)
t_x15                                               1 	(obj:1)
t_x16                                               1 	(obj:1)
t_x17                                               1 	(obj:1)
t_x18                                               1 	(obj:1)
t_x19                                               1 	(obj:1)
t_x21                                               1 	(obj:1)
t_x22                                               1 	(obj:1)
t_x23                                               1 	(obj:1)
t_x24                                               1 	(obj:1)
t_x25                                               1 	(obj:1)
t_x26                                               1 	(obj:1)
t_x27                                               1 	(obj:1)
t_x28                                               1 	(obj:1)
t_x29                                               1 	(obj:1)
t_x30                                               1 	(obj:1)
t_x31                                               1 	(obj:1)
t_x32                                               1 	(obj:1)
t_x33                                               1 	(obj:1)
t_x34                                               1 	(obj:1)
t_x35                                               1 	(obj:1)
t_x36                                               1 	(obj:1)
t_x37                                               1 	(obj:1)
t_x38                                               1 	(obj:1)
t_x39                                               1 	(obj:1)
t_x40                                               1 	(obj:1)
t_x41                                               1 	(obj:1)
t_x42                                               1 	(obj:1)
t_x43                                               1 	(obj:1)
t_x44                                               1 	(obj:1)
t_x45                                               1 	(obj:1)
t_x46                                               1 	(obj:1)
t_x47                                               1 	(obj:1)
t_x48                                               1 	(obj:1)
t_x49                                               1 	(obj:1)
t_x50                                               1 	(obj:1)
t_x51                                               1 	(obj:1)
t_x52                                               1 	(obj:1)
t_x53                                               1 	(obj:1)
t_x54                                               1 	(obj:1)
t_x55                                               1 	(obj:1)
t_x56                                               1 	(obj:1)
t_x57                                               1 	(obj:1)
t_x58                                               1 	(obj:1)
t_x59                                               1 	(obj:1)
t_x60                                               1 	(obj:1)
t_x61                                               1 	(obj:1)
t_x62                                               1 	(obj:1)
t_x63                                               1 	(obj:1)
t_x64                                               1 	(obj:1)
t_x65                                               1 	(obj:1)
t_x66                                               1 	(obj:1)
t_x67                                               1 	(obj:1)
t_x68                                               1 	(obj:1)
t_x69                                               1 	(obj:1)
t_x70                                               1 	(obj:1)
t_x71                                               1 	(obj:1)
t_x72                                               1 	(obj:1)
t_x73                                               1 	(obj:1)
t_x74                                               1 	(obj:1)
t_x75                                               1 	(obj:1)
t_x76                                               1 	(obj:1)
t_x77                                               1 	(obj:1)
t_x78                                               1 	(obj:1)
t_x79                                               1 	(obj:1)
t_x80                                               1 	(obj:1)
t_x81                                               1 	(obj:1)
t_x82                                               1 	(obj:1)
t_x83                                               1 	(obj:1)
t_x84                                               1 	(obj:1)
t_x85                                               1 	(obj:1)
t_x86                                               1 	(obj:1)
t_x87                                               1 	(obj:1)
t_x88                                               1 	(obj:1)
t_x89                                               1 	(obj:1)
t_x90                                               1 	(obj:1)
t_x91                                               1 	(obj:1)
t_x92                                               1 	(obj:1)
t_x93                                               1 	(obj:1)
t_x94                                               1 	(obj:1)
t_x95                                               1 	(obj:1)
t_x96                                               1 	(obj:1)
t_x97                                               1 	(obj:1)
t_x98                                               1 	(obj:1)
t_x99                                               1 	(obj:1)
t_x100                                              1 	(obj:1)
t_x101                                              1 	(obj:1)
t_x102                                              1 	(obj:1)
t_x103                                              1 	(obj:1)
t_x104                                              1 	(obj:1)
t_x105                                              1 	(obj:1)
t_x106                                              1 	(obj:1)
t_x107                                              1 	(obj:1)
t_x108                                              1 	(obj:1)
t_x109                                              1 	(obj:1)
t_x110                                              1 	(obj:1)
t_x111                                              1 	(obj:1)
t_x112                                              1 	(obj:1)
t_x113                                              1 	(obj:1)
t_x114                                              1 	(obj:1)
t_x115                                              1 	(obj:1)
t_x116                                              1 	(obj:1)
t_x117                                              1 	(obj:1)
t_x118                                              1 	(obj:1)
t_x119                                              1 	(obj:1)
t_x120                                              1 	(obj:1)
t_x121                                              1 	(obj:1)
t_x122                                              1 	(obj:1)
t_x123                                              1 	(obj:1)
t_x124                                              1 	(obj:1)
t_x125                                              1 	(obj:1)
t_x126                                              1 	(obj:1)
t_x127                                              1 	(obj:1)
t_x128                                              1 	(obj:1)
t_x129                                              1 	(obj:1)
t_x130                                              1 	(obj:1)
t_x131                                              1 	(obj:1)
t_x132                                              1 	(obj:1)
t_x133                                              1 	(obj:1)
t_x134                                              1 	(obj:1)
t_x135                                              1 	(obj:1)
t_x136                                              1 	(obj:1)
t_x137                                              1 	(obj:1)
t_x138                                              1 	(obj:1)
t_x139                                              1 	(obj:1)
t_x140                                              1 	(obj:1)
t_x141                                              1 	(obj:1)
t_x142                                              1 	(obj:1)
t_x143                                              1 	(obj:1)
t_x144                                              1 	(obj:1)
t_x145                                              1 	(obj:1)
t_x146                                              1 	(obj:1)
t_x147                                              1 	(obj:1)
t_x148                                              1 	(obj:1)
t_x149                                              1 	(obj:1)
t_x150                                              1 	(obj:1)
t_x151                                              1 	(obj:1)
t_x152                                              1 	(obj:1)
t_x153                                              1 	(obj:1)
t_x154                                              1 	(obj:1)
t_x155                                              1 	(obj:1)
t_x156                                              1 	(obj:1)
t_x157                                              1 	(obj:1)
t_x158                                              1 	(obj:1)
t_x159                                              1 	(obj:1)
t_x160                                              1 	(obj:1)
t_x161                                              1 	(obj:1)
t_x162                                              1 	(obj:1)
t_x163                                              1 	(obj:1)
t_x164                                              1 	(obj:1)
t_x165                                              1 	(obj:1)
t_x166                                              1 	(obj:1)
t_x167                                              1 	(obj:1)
t_x168                                              1 	(obj:1)
t_x169                                              1 	(obj:1)
t_x170                                              1 	(obj:1)
t_x171                                              1 	(obj:1)
t_x172                                              1 	(obj:1)
t_x174                                              1 	(obj:1)
t_x175                                              1 	(obj:1)
t_x176                                              1 	(obj:1)
t_x177                                              1 	(obj:1)
t_x178                                              1 	(obj:1)
t_x179                                              1 	(obj:1)
t_x180                                              1 	(obj:1)
t_x181                                              1 	(obj:1)
t_x182                                              1 	(obj:1)
t_x183                                              1 	(obj:1)
t_x184                                              1 	(obj:1)
t_x185                                              1 	(obj:1)
t_x186                                              1 	(obj:1)
t_x187                                              1 	(obj:1)
t_x188                                              1 	(obj:1)
t_x189                                              1 	(obj:1)
t_x190                                              1 	(obj:1)
t_x191                                              1 	(obj:1)
t_x192                                              1 	(obj:1)
t_x193                                              1 	(obj:1)
t_x194                                              1 	(obj:1)
t_x195                                              1 	(obj:1)
t_x196                                              1 	(obj:1)
t_x197                                              1 	(obj:1)
t_x198                                              1 	(obj:1)
t_x199                                              1 	(obj:1)
t_x200                                              1 	(obj:1)
t_x201                                              1 	(obj:1)
t_x202                                              1 	(obj:1)
t_x203                                              1 	(obj:1)
t_x204                                              1 	(obj:1)
t_x205                                              1 	(obj:1)
t_x206                                              1 	(obj:1)
t_x207                                              1 	(obj:1)
t_x208                                              1 	(obj:1)
t_x209                                              1 	(obj:1)
t_x210                                              1 	(obj:1)
t_x211                                              1 	(obj:1)
t_x212                                              1 	(obj:1)
t_x213                                              1 	(obj:1)
t_x214                                              1 	(obj:1)
t_x215                                              1 	(obj:1)
t_x216                                              1 	(obj:1)
t_x217                                              1 	(obj:1)
t_x218                                              1 	(obj:1)
t_x219                                              1 	(obj:1)
t_x220                                              1 	(obj:1)
t_x221                                              1 	(obj:1)
t_x222                                              1 	(obj:1)
t_x223                                              1 	(obj:1)
t_x224                                              1 	(obj:1)
t_x225                                              1 	(obj:1)
t_x226                                              1 	(obj:1)
t_x227                                              1 	(obj:1)
t_x228                                              1 	(obj:1)
t_x229                                              1 	(obj:1)
t_x230                                              1 	(obj:1)
t_x231                                              1 	(obj:1)
t_x232                                              1 	(obj:1)
t_x233                                              1 	(obj:1)
t_x234                                              1 	(obj:1)
t_x235                                              1 	(obj:1)
t_x236                                              1 	(obj:1)
t_x237                                              1 	(obj:1)
t_x238                                              1 	(obj:1)
t_x239                                              1 	(obj:1)
t_x240                                              1 	(obj:1)
t_x241                                              1 	(obj:1)
t_x242                                              1 	(obj:1)
t_x243                                              1 	(obj:1)
t_x244                                              1 	(obj:1)
t_x245                                              1 	(obj:1)
t_x246                                              1 	(obj:1)
t_x247                                              1 	(obj:1)
t_x248                                              1 	(obj:1)
t_x249                                              1 	(obj:1)
t_x250                                              1 	(obj:1)
t_x251                                              1 	(obj:1)
t_x252                                              1 	(obj:1)
t_x253                                              1 	(obj:1)
t_x254                                              1 	(obj:1)
t_x255                                              1 	(obj:1)
t_x256                                              1 	(obj:1)
t_x257                                              1 	(obj:1)
t_x258                                              1 	(obj:1)
t_x259                                              1 	(obj:1)
t_x260                                              1 	(obj:1)
t_x261                                              1 	(obj:1)
t_x262                                              1 	(obj:1)
t_x263                                              1 	(obj:1)
t_x264                                              1 	(obj:1)
t_x265                                              1 	(obj:1)
t_x266                                              1 	(obj:1)
t_x267                                              1 	(obj:1)
t_x268                                              1 	(obj:1)
t_x269                                              1 	(obj:1)
t_x270                                              1 	(obj:1)
t_x271                                              1 	(obj:1)
t_x272                                              1 	(obj:1)
t_x273                                              1 	(obj:1)
t_x274                                              1 	(obj:1)
t_x275                                              1 	(obj:1)
t_x276                                              1 	(obj:1)
t_x277                                              1 	(obj:1)
t_x278                                              1 	(obj:1)
t_x279                                              1 	(obj:1)
t_x280                                              1 	(obj:1)
t_x281                                              1 	(obj:1)
t_x282                                              1 	(obj:1)
t_x283                                              1 	(obj:1)
t_x284                                              1 	(obj:1)
t_x285                                              1 	(obj:1)
t_x286                                              1 	(obj:1)
t_x287                                              1 	(obj:1)
t_x288                                              1 	(obj:1)
t_x289                                              1 	(obj:1)
t_x290                                              1 	(obj:1)
t_x291                                              1 	(obj:1)
t_x292                                              1 	(obj:1)
t_x293                                              1 	(obj:1)
t_x294                                              1 	(obj:1)
t_x295                                              1 	(obj:1)
t_x297                                              1 	(obj:1)
